\ This file has been generated by DOcplex
\ ENCODING=ISO-8859-1
\Problem name: MCLP11_mul_c_5x5-2

Minimize
 obj: - 69 y_0 - 69 y_1 - 69 y_2 - 69 y_3 - 69 y_4 - 68 y_5 - 69 y_6 - 69 y_7
      - 69 y_8 - 68 y_9 - 68 y_10 - 69 y_11 - 69 y_12 - 69 y_13 - 68 y_14
      - 69 y_15 - 69 y_16 - 69 y_17 - 69 y_18 - 69 y_19 - 69 y_20 - 66 y_21
      - 69 y_22 - 67 y_23 - 69 y_24 - 490 x_6 - 490 x_8 - 420 x_22
      + 70 c1a_1_int_slack_0 + 70 c1a_3_int_slack_0 + 70 c1a_5_int_slack_0
      + 70 c1a_6_int_slack_0 + 70 c1a_7_int_slack_0 + 70 c1a_7_int_slack_1
      + 70 c1a_8_int_slack_0 + 70 c1a_9_int_slack_0 + 70 c1a_11_int_slack_0
      + 70 c1a_13_int_slack_0 + 70 c1a_17_int_slack_0 + 70 c1a_21_int_slack_0
      + 70 c1a_22_int_slack_0 + 70 c1a_23_int_slack_0 + [ 70 y_0^2 + 70 y_1^2
      + 140 y_1*x_6 - 140 y_1*c1a_1_int_slack_0 + 70 y_2^2 + 70 y_3^2
      + 140 y_3*x_8 - 140 y_3*c1a_3_int_slack_0 + 70 y_4^2 + 70 y_5^2
      + 140 y_5*x_6 - 140 y_5*c1a_5_int_slack_0 + 70 y_6^2 + 140 y_6*x_6
      - 140 y_6*c1a_6_int_slack_0 + 70 y_7^2 + 140 y_7*x_6 + 140 y_7*x_8
      - 140 y_7*c1a_7_int_slack_0 - 140 y_7*c1a_7_int_slack_1 + 70 y_8^2
      + 140 y_8*x_8 - 140 y_8*c1a_8_int_slack_0 + 70 y_9^2 + 140 y_9*x_8
      - 140 y_9*c1a_9_int_slack_0 + 70 y_10^2 + 70 y_11^2 + 140 y_11*x_6
      - 140 y_11*c1a_11_int_slack_0 + 70 y_12^2 + 70 y_13^2 + 140 y_13*x_8
      - 140 y_13*c1a_13_int_slack_0 + 70 y_14^2 + 70 y_15^2 + 70 y_16^2
      + 70 y_17^2 + 140 y_17*x_22 - 140 y_17*c1a_17_int_slack_0 + 70 y_18^2
      + 70 y_19^2 + 70 y_20^2 + 70 y_21^2 + 140 y_21*x_22
      - 140 y_21*c1a_21_int_slack_0 + 70 y_22^2 + 140 y_22*x_22
      - 140 y_22*c1a_22_int_slack_0 + 70 y_23^2 + 140 y_23*x_22
      - 140 y_23*c1a_23_int_slack_0 + 70 y_24^2 + 420 x_6^2 + 280 x_6*x_8
      + 140 x_6*x_22 - 140 x_6*c1a_1_int_slack_0 - 140 x_6*c1a_5_int_slack_0
      - 140 x_6*c1a_6_int_slack_0 - 140 x_6*c1a_7_int_slack_0
      - 140 x_6*c1a_7_int_slack_1 - 140 x_6*c1a_11_int_slack_0 + 420 x_8^2
      + 140 x_8*x_22 - 140 x_8*c1a_3_int_slack_0 - 140 x_8*c1a_7_int_slack_0
      - 140 x_8*c1a_7_int_slack_1 - 140 x_8*c1a_8_int_slack_0
      - 140 x_8*c1a_9_int_slack_0 - 140 x_8*c1a_13_int_slack_0 + 350 x_22^2
      - 140 x_22*c1a_17_int_slack_0 - 140 x_22*c1a_21_int_slack_0
      - 140 x_22*c1a_22_int_slack_0 - 140 x_22*c1a_23_int_slack_0
      + 70 c1a_1_int_slack_0^2 + 70 c1a_3_int_slack_0^2 + 70 c1a_5_int_slack_0^2
      + 70 c1a_6_int_slack_0^2 + 70 c1a_7_int_slack_0^2
      + 140 c1a_7_int_slack_0*c1a_7_int_slack_1 + 70 c1a_7_int_slack_1^2
      + 70 c1a_8_int_slack_0^2 + 70 c1a_9_int_slack_0^2
      + 70 c1a_11_int_slack_0^2 + 70 c1a_13_int_slack_0^2
      + 70 c1a_17_int_slack_0^2 + 70 c1a_21_int_slack_0^2
      + 70 c1a_22_int_slack_0^2 + 70 c1a_23_int_slack_0^2 ]/2 + 1015
Subject To

Bounds
 0 <= y_0 <= 1
 0 <= y_1 <= 1
 0 <= y_2 <= 1
 0 <= y_3 <= 1
 0 <= y_4 <= 1
 0 <= y_5 <= 1
 0 <= y_6 <= 1
 0 <= y_7 <= 1
 0 <= y_8 <= 1
 0 <= y_9 <= 1
 0 <= y_10 <= 1
 0 <= y_11 <= 1
 0 <= y_12 <= 1
 0 <= y_13 <= 1
 0 <= y_14 <= 1
 0 <= y_15 <= 1
 0 <= y_16 <= 1
 0 <= y_17 <= 1
 0 <= y_18 <= 1
 0 <= y_19 <= 1
 0 <= y_20 <= 1
 0 <= y_21 <= 1
 0 <= y_22 <= 1
 0 <= y_23 <= 1
 0 <= y_24 <= 1
 0 <= x_6 <= 1
 0 <= x_8 <= 1
 0 <= x_22 <= 1
 0 <= c1a_1_int_slack_0 <= 1
 0 <= c1a_3_int_slack_0 <= 1
 0 <= c1a_5_int_slack_0 <= 1
 0 <= c1a_6_int_slack_0 <= 1
 0 <= c1a_7_int_slack_0 <= 1
 0 <= c1a_7_int_slack_1 <= 1
 0 <= c1a_8_int_slack_0 <= 1
 0 <= c1a_9_int_slack_0 <= 1
 0 <= c1a_11_int_slack_0 <= 1
 0 <= c1a_13_int_slack_0 <= 1
 0 <= c1a_17_int_slack_0 <= 1
 0 <= c1a_21_int_slack_0 <= 1
 0 <= c1a_22_int_slack_0 <= 1
 0 <= c1a_23_int_slack_0 <= 1

Binaries
 y_0 y_1 y_2 y_3 y_4 y_5 y_6 y_7 y_8 y_9 y_10 y_11 y_12 y_13 y_14 y_15 y_16 y_17
 y_18 y_19 y_20 y_21 y_22 y_23 y_24 x_6 x_8 x_22 c1a_1_int_slack_0
 c1a_3_int_slack_0 c1a_5_int_slack_0 c1a_6_int_slack_0 c1a_7_int_slack_0
 c1a_7_int_slack_1 c1a_8_int_slack_0 c1a_9_int_slack_0 c1a_11_int_slack_0
 c1a_13_int_slack_0 c1a_17_int_slack_0 c1a_21_int_slack_0 c1a_22_int_slack_0
 c1a_23_int_slack_0
End
